Default variable names x1, x2 ... being created.
Default row names c1, c2 ... being created.
Tried aggregator 2 times.
Aggregator did 2 substitutions.
Reduced MIP has 96 rows, 38 columns, and 210 nonzeros.
Reduced MIP has 38 binaries, 0 generals, 0 SOSs, and 0 indicators.
Presolve time = 0.00 sec. (0.21 ticks)
Found incumbent of value 2.000000 after 0.00 sec. (0.28 ticks)
Probing time = 0.00 sec. (0.03 ticks)
Tried aggregator 1 time.
Reduced MIP has 96 rows, 38 columns, and 210 nonzeros.
Reduced MIP has 38 binaries, 0 generals, 0 SOSs, and 0 indicators.
Presolve time = 0.00 sec. (0.14 ticks)
Probing time = 0.00 sec. (0.03 ticks)
Clique table members: 95.
MIP emphasis: balance optimality and feasibility.
MIP search method: dynamic search.
Parallel mode: deterministic, using up to 4 threads.
Root relaxation solution time = 0.00 sec. (0.31 ticks)

        Nodes                                         Cuts/
   Node  Left     Objective  IInf  Best Integer    Best Bound    ItCnt     Gap

*     0+    0                            2.0000       20.0000           900.00%
*     0+    0                            6.0000       20.0000           233.33%
*     0     0      integral     0       16.0000       16.0000       48    0.00%
Elapsed time = 0.00 sec. (0.89 ticks, tree = 0.00 MB, solutions = 3)

Root node processing (before b&c):
  Real time             =    0.00 sec. (0.89 ticks)
Parallel b&c, 4 threads:
  Real time             =    0.00 sec. (0.00 ticks)
  Sync time (average)   =    0.00 sec.
  Wait time (average)   =    0.00 sec.
                          ------------
Total (root+branch&cut) =    0.00 sec. (0.89 ticks)
